c Tree-structured CNF
c Generated CNF instance
p cnf 63 182
-1 3 0
1 -3 0
3 4 0
-1 4 0
1 -4 0
4 5 0
-2 5 0
2 -5 0
5 6 0
-2 6 0
2 -6 0
6 7 0
-3 7 0
3 -7 0
7 8 0
-3 8 0
3 -8 0
8 9 0
-4 9 0
4 -9 0
9 10 0
-4 10 0
4 -10 0
10 11 0
-5 11 0
5 -11 0
11 12 0
-5 12 0
5 -12 0
12 13 0
-6 13 0
6 -13 0
13 14 0
-6 14 0
6 -14 0
14 15 0
-7 15 0
7 -15 0
15 16 0
-7 16 0
7 -16 0
16 17 0
-8 17 0
8 -17 0
17 18 0
-8 18 0
8 -18 0
18 19 0
-9 19 0
9 -19 0
19 20 0
-9 20 0
9 -20 0
20 21 0
-10 21 0
10 -21 0
21 22 0
-10 22 0
10 -22 0
22 23 0
-11 23 0
11 -23 0
23 24 0
-11 24 0
11 -24 0
24 25 0
-12 25 0
12 -25 0
25 26 0
-12 26 0
12 -26 0
26 27 0
-13 27 0
13 -27 0
27 28 0
-13 28 0
13 -28 0
28 29 0
-14 29 0
14 -29 0
29 30 0
-14 30 0
14 -30 0
30 31 0
-15 31 0
15 -31 0
31 32 0
-15 32 0
15 -32 0
32 33 0
-16 33 0
16 -33 0
33 34 0
-16 34 0
16 -34 0
34 35 0
-17 35 0
17 -35 0
35 36 0
-17 36 0
17 -36 0
36 37 0
-18 37 0
18 -37 0
37 38 0
-18 38 0
18 -38 0
38 39 0
-19 39 0
19 -39 0
39 40 0
-19 40 0
19 -40 0
40 41 0
-20 41 0
20 -41 0
41 42 0
-20 42 0
20 -42 0
42 43 0
-21 43 0
21 -43 0
43 44 0
-21 44 0
21 -44 0
44 45 0
-22 45 0
22 -45 0
45 46 0
-22 46 0
22 -46 0
46 47 0
-23 47 0
23 -47 0
47 48 0
-23 48 0
23 -48 0
48 49 0
-24 49 0
24 -49 0
49 50 0
-24 50 0
24 -50 0
50 51 0
-25 51 0
25 -51 0
51 52 0
-25 52 0
25 -52 0
52 53 0
-26 53 0
26 -53 0
53 54 0
-26 54 0
26 -54 0
54 55 0
-27 55 0
27 -55 0
55 56 0
-27 56 0
27 -56 0
56 57 0
-28 57 0
28 -57 0
57 58 0
-28 58 0
28 -58 0
58 59 0
-29 59 0
29 -59 0
59 60 0
-29 60 0
29 -60 0
60 61 0
-30 61 0
30 -61 0
61 62 0
-30 62 0
30 -62 0
62 63 0
-31 63 0
31 -63 0
